70
1 0 4
2 0 4
2 1 5
3 0 2
3 1 5
3 2 2
4 0 5
4 1 1
4 2 2
4 3 4
5 0 3
5 1 4
5 2 2
5 3 3
5 4 5
6 0 5
6 1 4
6 2 5
6 3 5
6 4 3
6 5 2
7 0 1
7 1 3
7 2 1
7 3 2
7 4 5
7 5 1
7 6 3
8 0 3
8 1 5
8 2 2
8 3 2
8 4 4
8 5 4
8 6 2
8 7 1
9 0 3
9 1 1
9 2 1
9 3 4
9 4 1
9 5 5
9 6 4
9 7 5
9 8 3
10 0 5
10 1 3
10 2 2
10 3 2
10 4 5
10 5 1
10 6 4
10 7 5
10 8 1
10 9 3
11 0 3
11 1 1
11 2 5
11 3 1
11 4 2
11 5 5
11 6 5
11 7 3
11 8 5
11 9 2
11 10 5
12 0 4
12 1 5
12 2 5
12 3 3
12 4 2
12 5 4
12 6 1
12 7 1
12 8 2
12 9 3
12 10 2
12 11 2
13 0 3
13 1 2
13 2 2
13 3 2
13 4 5
13 5 3
13 6 3
13 7 5
13 8 2
13 9 1
13 10 1
13 11 1
13 12 4
14 0 1
14 1 1
14 2 1
14 3 1
14 4 3
14 5 5
14 6 4
14 7 1
14 8 5
14 9 3
14 10 5
14 11 3
14 12 5
14 13 4
15 0 1
15 1 2
15 2 2
15 3 3
15 4 3
15 5 2
15 6 3
15 7 4
15 8 3
15 9 1
15 10 3
15 11 1
15 12 2
15 13 1
15 14 5
16 0 4
16 1 3
16 2 5
16 3 2
16 4 5
16 5 3
16 6 1
16 7 4
16 8 3
16 9 5
16 10 5
16 11 5
16 12 1
16 13 2
16 14 5
16 15 4
17 0 5
17 1 1
17 2 3
17 3 5
17 4 5
17 5 2
17 6 4
17 7 3
17 8 2
17 9 1
17 10 2
17 11 2
17 12 4
17 13 2
17 14 4
17 15 4
17 16 1
18 0 2
18 1 5
18 2 4
18 3 2
18 4 4
18 5 2
18 6 2
18 7 1
18 8 4
18 9 3
18 10 4
18 11 3
18 12 4
18 13 3
18 14 5
18 15 3
18 16 3
18 17 1
19 0 5
19 1 1
19 2 2
19 3 1
19 4 2
19 5 2
19 6 1
19 7 2
19 8 2
19 9 1
19 10 3
19 11 5
19 12 1
19 13 1
19 14 1
19 15 2
19 16 4
19 17 1
19 18 2
20 0 2
20 1 1
20 2 4
20 3 5
20 4 4
20 5 3
20 6 4
20 7 2
20 8 2
20 9 5
20 10 2
20 11 2
20 12 5
20 13 2
20 14 5
20 15 3
20 16 1
20 17 3
20 18 4
20 19 5
21 0 4
21 1 5
21 2 5
21 3 5
21 4 2
21 5 4
21 6 2
21 7 3
21 8 5
21 9 3
21 10 5
21 11 1
21 12 3
21 13 4
21 14 4
21 15 5
21 16 3
21 17 5
21 18 2
21 19 1
21 20 2
22 0 3
22 1 2
22 2 4
22 3 5
22 4 3
22 5 2
22 6 1
22 7 1
22 8 2
22 9 2
22 10 5
22 11 1
22 12 5
22 13 5
22 14 1
22 15 3
22 16 5
22 17 4
22 18 4
22 19 1
22 20 5
22 21 3
23 0 5
23 1 4
23 2 5
23 3 3
23 4 1
23 5 2
23 6 1
23 7 3
23 8 2
23 9 4
23 10 2
23 11 2
23 12 5
23 13 5
23 14 3
23 15 2
23 16 2
23 17 3
23 18 2
23 19 3
23 20 2
23 21 5
23 22 2
24 0 4
24 1 3
24 2 1
24 3 1
24 4 5
24 5 2
24 6 4
24 7 4
24 8 4
24 9 2
24 10 5
24 11 4
24 12 2
24 13 3
24 14 5
24 15 4
24 16 2
24 17 1
24 18 4
24 19 5
24 20 2
24 21 4
24 22 2
24 23 1
25 0 4
25 1 5
25 2 2
25 3 5
25 4 5
25 5 2
25 6 1
25 7 1
25 8 2
25 9 4
25 10 1
25 11 2
25 12 4
25 13 5
25 14 1
25 15 2
25 16 3
25 17 5
25 18 5
25 19 1
25 20 4
25 21 3
25 22 1
25 23 1
25 24 2
26 0 2
26 1 4
26 2 2
26 3 5
26 4 5
26 5 1
26 6 4
26 7 3
26 8 2
26 9 5
26 10 2
26 11 4
26 12 1
26 13 1
26 14 5
26 15 3
26 16 4
26 17 2
26 18 1
26 19 3
26 20 5
26 21 2
26 22 3
26 23 3
26 24 5
26 25 4
27 0 4
27 1 4
27 2 3
27 3 5
27 4 4
27 5 3
27 6 3
27 7 1
27 8 3
27 9 2
27 10 2
27 11 5
27 12 3
27 13 3
27 14 1
27 15 5
27 16 3
27 17 2
27 18 3
27 19 3
27 20 4
27 21 3
27 22 2
27 23 2
27 24 4
27 25 3
27 26 1
28 0 5
28 1 2
28 2 1
28 3 5
28 4 5
28 5 2
28 6 2
28 7 5
28 8 5
28 9 5
28 10 5
28 11 2
28 12 4
28 13 2
28 14 5
28 15 2
28 16 4
28 17 1
28 18 4
28 19 2
28 20 5
28 21 4
28 22 2
28 23 5
28 24 1
28 25 4
28 26 3
28 27 3
29 0 2
29 1 3
29 2 5
29 3 4
29 4 5
29 5 4
29 6 2
29 7 4
29 8 2
29 9 1
29 10 5
29 11 4
29 12 5
29 13 5
29 14 2
29 15 3
29 16 1
29 17 5
29 18 1
29 19 1
29 20 4
29 21 1
29 22 2
29 23 2
29 24 3
29 25 1
29 26 3
29 27 2
29 28 3
30 0 2
30 1 1
30 2 1
30 3 4
30 4 4
30 5 3
30 6 3
30 7 3
30 8 4
30 9 5
30 10 4
30 11 3
30 12 5
30 13 4
30 14 5
30 15 2
30 16 2
30 17 1
30 18 1
30 19 1
30 20 5
30 21 4
30 22 4
30 23 3
30 24 1
30 25 5
30 26 4
30 27 5
30 28 2
30 29 3
31 0 5
31 1 1
31 2 5
31 3 4
31 4 5
31 5 5
31 6 1
31 7 2
31 8 1
31 9 4
31 10 5
31 11 4
31 12 2
31 13 3
31 14 1
31 15 1
31 16 5
31 17 2
31 18 4
31 19 4
31 20 2
31 21 2
31 22 1
31 23 3
31 24 2
31 25 4
31 26 4
31 27 2
31 28 4
31 29 3
31 30 1
32 0 1
32 1 4
32 2 3
32 3 4
32 4 5
32 5 3
32 6 1
32 7 1
32 8 3
32 9 3
32 10 3
32 11 5
32 12 2
32 13 4
32 14 1
32 15 4
32 16 2
32 17 1
32 18 2
32 19 5
32 20 1
32 21 4
32 22 1
32 23 4
32 24 3
32 25 3
32 26 2
32 27 4
32 28 3
32 29 4
32 30 4
32 31 4
33 0 3
33 1 3
33 2 3
33 3 3
33 4 2
33 5 4
33 6 5
33 7 2
33 8 1
33 9 1
33 10 1
33 11 3
33 12 2
33 13 4
33 14 1
33 15 3
33 16 2
33 17 3
33 18 5
33 19 1
33 20 3
33 21 2
33 22 1
33 23 5
33 24 5
33 25 2
33 26 5
33 27 2
33 28 2
33 29 2
33 30 3
33 31 5
33 32 5
34 0 4
34 1 4
34 2 4
34 3 1
34 4 1
34 5 5
34 6 3
34 7 2
34 8 1
34 9 1
34 10 5
34 11 1
34 12 4
34 13 1
34 14 1
34 15 3
34 16 3
34 17 1
34 18 1
34 19 5
34 20 5
34 21 2
34 22 3
34 23 3
34 24 1
34 25 5
34 26 5
34 27 1
34 28 2
34 29 5
34 30 2
34 31 1
34 32 3
34 33 2
35 0 3
35 1 5
35 2 1
35 3 3
35 4 2
35 5 1
35 6 5
35 7 3
35 8 5
35 9 1
35 10 4
35 11 1
35 12 5
35 13 2
35 14 1
35 15 2
35 16 1
35 17 1
35 18 2
35 19 5
35 20 4
35 21 5
35 22 1
35 23 4
35 24 2
35 25 4
35 26 4
35 27 2
35 28 2
35 29 3
35 30 1
35 31 5
35 32 1
35 33 4
35 34 1
36 0 2
36 1 3
36 2 5
36 3 1
36 4 1
36 5 5
36 6 3
36 7 4
36 8 5
36 9 2
36 10 1
36 11 4
36 12 1
36 13 2
36 14 4
36 15 3
36 16 5
36 17 3
36 18 4
36 19 3
36 20 3
36 21 1
36 22 3
36 23 3
36 24 4
36 25 5
36 26 4
36 27 3
36 28 1
36 29 3
36 30 2
36 31 3
36 32 5
36 33 3
36 34 3
36 35 1
37 0 5
37 1 5
37 2 2
37 3 2
37 4 5
37 5 5
37 6 1
37 7 4
37 8 1
37 9 2
37 10 1
37 11 5
37 12 3
37 13 1
37 14 5
37 15 1
37 16 3
37 17 1
37 18 2
37 19 5
37 20 4
37 21 2
37 22 5
37 23 4
37 24 1
37 25 4
37 26 5
37 27 2
37 28 2
37 29 4
37 30 3
37 31 5
37 32 3
37 33 4
37 34 2
37 35 1
37 36 3
38 0 1
38 1 4
38 2 3
38 3 5
38 4 1
38 5 3
38 6 4
38 7 3
38 8 1
38 9 5
38 10 4
38 11 2
38 12 4
38 13 5
38 14 4
38 15 4
38 16 2
38 17 2
38 18 2
38 19 2
38 20 2
38 21 3
38 22 4
38 23 1
38 24 4
38 25 4
38 26 4
38 27 5
38 28 1
38 29 4
38 30 1
38 31 5
38 32 5
38 33 2
38 34 3
38 35 5
38 36 2
38 37 5
39 0 1
39 1 5
39 2 1
39 3 5
39 4 1
39 5 5
39 6 2
39 7 2
39 8 4
39 9 3
39 10 1
39 11 4
39 12 3
39 13 3
39 14 1
39 15 3
39 16 2
39 17 1
39 18 4
39 19 2
39 20 4
39 21 4
39 22 4
39 23 5
39 24 1
39 25 1
39 26 4
39 27 4
39 28 1
39 29 4
39 30 3
39 31 2
39 32 1
39 33 1
39 34 4
39 35 2
39 36 1
39 37 2
39 38 4
40 0 5
40 1 2
40 2 3
40 3 4
40 4 2
40 5 4
40 6 3
40 7 2
40 8 2
40 9 2
40 10 4
40 11 5
40 12 1
40 13 2
40 14 1
40 15 5
40 16 1
40 17 4
40 18 3
40 19 2
40 20 3
40 21 3
40 22 3
40 23 2
40 24 4
40 25 5
40 26 1
40 27 1
40 28 2
40 29 5
40 30 3
40 31 5
40 32 1
40 33 4
40 34 5
40 35 3
40 36 5
40 37 3
40 38 5
40 39 2
41 0 3
41 1 5
41 2 3
41 3 4
41 4 4
41 5 4
41 6 2
41 7 3
41 8 3
41 9 3
41 10 2
41 11 1
41 12 2
41 13 4
41 14 5
41 15 5
41 16 4
41 17 3
41 18 3
41 19 4
41 20 1
41 21 4
41 22 2
41 23 4
41 24 3
41 25 2
41 26 1
41 27 2
41 28 4
41 29 5
41 30 2
41 31 2
41 32 3
41 33 4
41 34 5
41 35 2
41 36 2
41 37 4
41 38 4
41 39 1
41 40 3
42 0 3
42 1 4
42 2 3
42 3 5
42 4 3
42 5 1
42 6 1
42 7 1
42 8 3
42 9 1
42 10 1
42 11 2
42 12 5
42 13 2
42 14 4
42 15 2
42 16 2
42 17 5
42 18 4
42 19 5
42 20 4
42 21 4
42 22 1
42 23 3
42 24 4
42 25 2
42 26 5
42 27 3
42 28 1
42 29 5
42 30 2
42 31 3
42 32 5
42 33 1
42 34 5
42 35 5
42 36 2
42 37 2
42 38 2
42 39 5
42 40 1
42 41 2
43 0 3
43 1 3
43 2 3
43 3 1
43 4 1
43 5 2
43 6 1
43 7 5
43 8 3
43 9 4
43 10 4
43 11 5
43 12 5
43 13 5
43 14 2
43 15 5
43 16 4
43 17 1
43 18 5
43 19 4
43 20 5
43 21 3
43 22 5
43 23 5
43 24 4
43 25 3
43 26 5
43 27 5
43 28 3
43 29 5
43 30 2
43 31 3
43 32 5
43 33 3
43 34 4
43 35 4
43 36 3
43 37 5
43 38 5
43 39 1
43 40 5
43 41 1
43 42 4
44 0 1
44 1 5
44 2 1
44 3 5
44 4 3
44 5 3
44 6 5
44 7 3
44 8 2
44 9 5
44 10 2
44 11 3
44 12 4
44 13 5
44 14 4
44 15 2
44 16 5
44 17 4
44 18 1
44 19 3
44 20 3
44 21 4
44 22 4
44 23 3
44 24 4
44 25 1
44 26 4
44 27 5
44 28 2
44 29 5
44 30 3
44 31 2
44 32 3
44 33 5
44 34 4
44 35 3
44 36 3
44 37 5
44 38 2
44 39 4
44 40 3
44 41 3
44 42 4
44 43 5
45 0 4
45 1 2
45 2 5
45 3 3
45 4 3
45 5 4
45 6 2
45 7 1
45 8 5
45 9 3
45 10 1
45 11 1
45 12 3
45 13 3
45 14 1
45 15 3
45 16 4
45 17 2
45 18 1
45 19 3
45 20 2
45 21 1
45 22 2
45 23 1
45 24 4
45 25 5
45 26 2
45 27 2
45 28 2
45 29 1
45 30 2
45 31 2
45 32 2
45 33 3
45 34 4
45 35 5
45 36 3
45 37 1
45 38 1
45 39 3
45 40 1
45 41 5
45 42 2
45 43 1
45 44 4
46 0 4
46 1 5
46 2 3
46 3 5
46 4 4
46 5 4
46 6 2
46 7 3
46 8 5
46 9 1
46 10 2
46 11 3
46 12 3
46 13 1
46 14 1
46 15 4
46 16 4
46 17 2
46 18 3
46 19 1
46 20 4
46 21 5
46 22 2
46 23 1
46 24 2
46 25 3
46 26 3
46 27 3
46 28 1
46 29 3
46 30 3
46 31 3
46 32 3
46 33 4
46 34 3
46 35 1
46 36 4
46 37 5
46 38 5
46 39 1
46 40 5
46 41 3
46 42 4
46 43 2
46 44 4
46 45 2
47 0 4
47 1 5
47 2 4
47 3 2
47 4 2
47 5 2
47 6 3
47 7 1
47 8 2
47 9 2
47 10 3
47 11 4
47 12 2
47 13 3
47 14 5
47 15 2
47 16 2
47 17 4
47 18 5
47 19 3
47 20 1
47 21 3
47 22 4
47 23 1
47 24 4
47 25 1
47 26 4
47 27 4
47 28 1
47 29 5
47 30 5
47 31 4
47 32 3
47 33 2
47 34 4
47 35 3
47 36 1
47 37 3
47 38 3
47 39 4
47 40 5
47 41 1
47 42 1
47 43 2
47 44 1
47 45 4
47 46 4
48 0 3
48 1 2
48 2 2
48 3 3
48 4 4
48 5 1
48 6 2
48 7 4
48 8 2
48 9 1
48 10 5
48 11 4
48 12 4
48 13 3
48 14 1
48 15 3
48 16 2
48 17 3
48 18 4
48 19 4
48 20 4
48 21 3
48 22 4
48 23 5
48 24 4
48 25 2
48 26 2
48 27 3
48 28 4
48 29 2
48 30 4
48 31 2
48 32 2
48 33 3
48 34 5
48 35 4
48 36 3
48 37 5
48 38 5
48 39 2
48 40 2
48 41 2
48 42 5
48 43 3
48 44 4
48 45 4
48 46 5
48 47 1
49 0 3
49 1 2
49 2 5
49 3 4
49 4 1
49 5 4
49 6 3
49 7 1
49 8 3
49 9 1
49 10 4
49 11 5
49 12 2
49 13 3
49 14 1
49 15 2
49 16 4
49 17 1
49 18 1
49 19 4
49 20 2
49 21 1
49 22 4
49 23 3
49 24 2
49 25 1
49 26 1
49 27 5
49 28 3
49 29 1
49 30 1
49 31 3
49 32 2
49 33 1
49 34 4
49 35 3
49 36 4
49 37 5
49 38 1
49 39 5
49 40 3
49 41 5
49 42 3
49 43 5
49 44 4
49 45 3
49 46 2
49 47 1
49 48 1
50 0 3
50 1 4
50 2 4
50 3 4
50 4 4
50 5 5
50 6 4
50 7 4
50 8 3
50 9 3
50 10 4
50 11 2
50 12 2
50 13 2
50 14 3
50 15 3
50 16 2
50 17 2
50 18 1
50 19 4
50 20 3
50 21 3
50 22 2
50 23 1
50 24 4
50 25 4
50 26 5
50 27 4
50 28 2
50 29 4
50 30 2
50 31 3
50 32 3
50 33 5
50 34 1
50 35 4
50 36 5
50 37 2
50 38 5
50 39 5
50 40 2
50 41 5
50 42 3
50 43 3
50 44 2
50 45 4
50 46 3
50 47 1
50 48 3
50 49 5
51 0 2
51 1 3
51 2 4
51 3 4
51 4 5
51 5 2
51 6 5
51 7 3
51 8 3
51 9 2
51 10 5
51 11 2
51 12 1
51 13 1
51 14 3
51 15 3
51 16 3
51 17 1
51 18 2
51 19 4
51 20 4
51 21 3
51 22 5
51 23 3
51 24 3
51 25 2
51 26 3
51 27 3
51 28 1
51 29 1
51 30 4
51 31 2
51 32 2
51 33 5
51 34 5
51 35 4
51 36 3
51 37 1
51 38 3
51 39 5
51 40 3
51 41 1
51 42 2
51 43 3
51 44 1
51 45 2
51 46 4
51 47 5
51 48 5
51 49 4
51 50 2
52 0 1
52 1 3
52 2 5
52 3 5
52 4 5
52 5 2
52 6 4
52 7 1
52 8 3
52 9 3
52 10 1
52 11 1
52 12 3
52 13 3
52 14 5
52 15 1
52 16 5
52 17 1
52 18 2
52 19 3
52 20 1
52 21 4
52 22 1
52 23 2
52 24 2
52 25 1
52 26 3
52 27 4
52 28 3
52 29 4
52 30 4
52 31 5
52 32 2
52 33 1
52 34 1
52 35 2
52 36 4
52 37 5
52 38 4
52 39 2
52 40 1
52 41 3
52 42 3
52 43 2
52 44 2
52 45 1
52 46 4
52 47 5
52 48 2
52 49 1
52 50 4
52 51 1
53 0 1
53 1 5
53 2 3
53 3 1
53 4 2
53 5 5
53 6 1
53 7 2
53 8 4
53 9 4
53 10 1
53 11 1
53 12 2
53 13 4
53 14 3
53 15 4
53 16 5
53 17 1
53 18 4
53 19 1
53 20 1
53 21 2
53 22 5
53 23 4
53 24 3
53 25 3
53 26 5
53 27 1
53 28 4
53 29 5
53 30 5
53 31 2
53 32 3
53 33 4
53 34 4
53 35 1
53 36 5
53 37 3
53 38 5
53 39 4
53 40 4
53 41 3
53 42 3
53 43 5
53 44 2
53 45 5
53 46 4
53 47 4
53 48 5
53 49 2
53 50 4
53 51 1
53 52 4
54 0 3
54 1 5
54 2 5
54 3 4
54 4 5
54 5 3
54 6 3
54 7 1
54 8 2
54 9 3
54 10 5
54 11 5
54 12 3
54 13 1
54 14 5
54 15 4
54 16 1
54 17 1
54 18 3
54 19 5
54 20 1
54 21 5
54 22 5
54 23 4
54 24 3
54 25 4
54 26 4
54 27 3
54 28 3
54 29 1
54 30 3
54 31 2
54 32 2
54 33 4
54 34 1
54 35 5
54 36 2
54 37 4
54 38 1
54 39 3
54 40 2
54 41 3
54 42 3
54 43 2
54 44 4
54 45 5
54 46 4
54 47 1
54 48 1
54 49 3
54 50 5
54 51 1
54 52 2
54 53 3
55 0 2
55 1 3
55 2 2
55 3 5
55 4 1
55 5 1
55 6 5
55 7 2
55 8 1
55 9 2
55 10 5
55 11 2
55 12 5
55 13 5
55 14 1
55 15 5
55 16 2
55 17 5
55 18 4
55 19 5
55 20 2
55 21 1
55 22 5
55 23 1
55 24 1
55 25 5
55 26 2
55 27 2
55 28 4
55 29 5
55 30 5
55 31 1
55 32 4
55 33 1
55 34 3
55 35 3
55 36 5
55 37 1
55 38 5
55 39 3
55 40 4
55 41 5
55 42 3
55 43 2
55 44 4
55 45 5
55 46 3
55 47 1
55 48 3
55 49 4
55 50 5
55 51 3
55 52 1
55 53 3
55 54 1
56 0 2
56 1 3
56 2 3
56 3 2
56 4 1
56 5 1
56 6 1
56 7 1
56 8 1
56 9 4
56 10 1
56 11 5
56 12 1
56 13 2
56 14 3
56 15 4
56 16 1
56 17 5
56 18 3
56 19 1
56 20 5
56 21 2
56 22 5
56 23 1
56 24 2
56 25 1
56 26 3
56 27 1
56 28 2
56 29 1
56 30 4
56 31 3
56 32 3
56 33 2
56 34 2
56 35 2
56 36 5
56 37 2
56 38 4
56 39 2
56 40 3
56 41 5
56 42 4
56 43 1
56 44 5
56 45 4
56 46 2
56 47 4
56 48 2
56 49 2
56 50 1
56 51 3
56 52 4
56 53 3
56 54 1
56 55 1
57 0 1
57 1 2
57 2 2
57 3 1
57 4 4
57 5 5
57 6 4
57 7 5
57 8 2
57 9 3
57 10 5
57 11 5
57 12 5
57 13 2
57 14 1
57 15 1
57 16 2
57 17 1
57 18 1
57 19 5
57 20 5
57 21 4
57 22 1
57 23 1
57 24 4
57 25 4
57 26 2
57 27 3
57 28 5
57 29 5
57 30 5
57 31 3
57 32 3
57 33 2
57 34 3
57 35 1
57 36 3
57 37 4
57 38 5
57 39 1
57 40 2
57 41 4
57 42 2
57 43 2
57 44 2
57 45 4
57 46 1
57 47 4
57 48 3
57 49 1
57 50 5
57 51 2
57 52 5
57 53 3
57 54 3
57 55 5
57 56 3
58 0 4
58 1 3
58 2 5
58 3 4
58 4 2
58 5 2
58 6 1
58 7 2
58 8 1
58 9 5
58 10 3
58 11 5
58 12 1
58 13 3
58 14 5
58 15 2
58 16 2
58 17 4
58 18 4
58 19 4
58 20 2
58 21 3
58 22 5
58 23 5
58 24 3
58 25 3
58 26 2
58 27 2
58 28 3
58 29 4
58 30 2
58 31 5
58 32 2
58 33 5
58 34 4
58 35 2
58 36 3
58 37 1
58 38 2
58 39 3
58 40 3
58 41 1
58 42 2
58 43 2
58 44 3
58 45 5
58 46 4
58 47 5
58 48 1
58 49 2
58 50 1
58 51 3
58 52 5
58 53 1
58 54 3
58 55 1
58 56 1
58 57 4
59 0 5
59 1 5
59 2 4
59 3 4
59 4 2
59 5 1
59 6 4
59 7 2
59 8 4
59 9 2
59 10 4
59 11 1
59 12 4
59 13 4
59 14 1
59 15 5
59 16 4
59 17 4
59 18 5
59 19 5
59 20 2
59 21 5
59 22 1
59 23 4
59 24 4
59 25 2
59 26 2
59 27 1
59 28 4
59 29 4
59 30 2
59 31 2
59 32 1
59 33 2
59 34 1
59 35 3
59 36 4
59 37 2
59 38 2
59 39 3
59 40 2
59 41 1
59 42 2
59 43 4
59 44 1
59 45 1
59 46 5
59 47 4
59 48 2
59 49 1
59 50 3
59 51 4
59 52 3
59 53 4
59 54 3
59 55 2
59 56 4
59 57 4
59 58 3
60 0 1
60 1 4
60 2 5
60 3 3
60 4 3
60 5 2
60 6 4
60 7 4
60 8 4
60 9 4
60 10 5
60 11 1
60 12 3
60 13 2
60 14 1
60 15 5
60 16 5
60 17 3
60 18 5
60 19 4
60 20 4
60 21 5
60 22 1
60 23 1
60 24 4
60 25 5
60 26 1
60 27 1
60 28 5
60 29 4
60 30 2
60 31 4
60 32 5
60 33 4
60 34 1
60 35 2
60 36 2
60 37 2
60 38 1
60 39 5
60 40 2
60 41 1
60 42 4
60 43 3
60 44 2
60 45 3
60 46 3
60 47 1
60 48 5
60 49 2
60 50 3
60 51 3
60 52 3
60 53 5
60 54 3
60 55 1
60 56 4
60 57 1
60 58 4
60 59 4
61 0 5
61 1 5
61 2 5
61 3 3
61 4 4
61 5 1
61 6 5
61 7 1
61 8 4
61 9 5
61 10 4
61 11 3
61 12 1
61 13 1
61 14 3
61 15 3
61 16 3
61 17 2
61 18 2
61 19 2
61 20 2
61 21 4
61 22 5
61 23 3
61 24 4
61 25 2
61 26 4
61 27 4
61 28 2
61 29 2
61 30 1
61 31 3
61 32 3
61 33 4
61 34 3
61 35 4
61 36 3
61 37 4
61 38 4
61 39 2
61 40 2
61 41 3
61 42 3
61 43 3
61 44 4
61 45 2
61 46 3
61 47 3
61 48 4
61 49 4
61 50 3
61 51 5
61 52 1
61 53 3
61 54 2
61 55 3
61 56 3
61 57 5
61 58 2
61 59 4
61 60 4
62 0 1
62 1 1
62 2 3
62 3 1
62 4 3
62 5 1
62 6 5
62 7 4
62 8 3
62 9 5
62 10 1
62 11 4
62 12 1
62 13 5
62 14 2
62 15 4
62 16 3
62 17 3
62 18 5
62 19 3
62 20 3
62 21 2
62 22 5
62 23 3
62 24 1
62 25 1
62 26 5
62 27 3
62 28 4
62 29 3
62 30 1
62 31 4
62 32 3
62 33 1
62 34 1
62 35 2
62 36 5
62 37 1
62 38 5
62 39 2
62 40 5
62 41 2
62 42 5
62 43 5
62 44 1
62 45 4
62 46 3
62 47 3
62 48 1
62 49 5
62 50 4
62 51 2
62 52 3
62 53 1
62 54 1
62 55 5
62 56 3
62 57 2
62 58 4
62 59 3
62 60 1
62 61 3
63 0 2
63 1 1
63 2 5
63 3 1
63 4 1
63 5 2
63 6 3
63 7 5
63 8 2
63 9 2
63 10 5
63 11 5
63 12 2
63 13 1
63 14 5
63 15 4
63 16 3
63 17 4
63 18 2
63 19 1
63 20 3
63 21 4
63 22 2
63 23 2
63 24 5
63 25 2
63 26 2
63 27 2
63 28 2
63 29 2
63 30 5
63 31 1
63 32 1
63 33 5
63 34 4
63 35 5
63 36 3
63 37 1
63 38 2
63 39 3
63 40 2
63 41 2
63 42 5
63 43 3
63 44 1
63 45 2
63 46 5
63 47 3
63 48 4
63 49 1
63 50 5
63 51 5
63 52 2
63 53 3
63 54 2
63 55 2
63 56 5
63 57 4
63 58 3
63 59 1
63 60 3
63 61 1
63 62 5
64 0 3
64 1 2
64 2 5
64 3 2
64 4 1
64 5 2
64 6 4
64 7 5
64 8 1
64 9 4
64 10 5
64 11 5
64 12 4
64 13 2
64 14 5
64 15 1
64 16 5
64 17 3
64 18 4
64 19 5
64 20 3
64 21 5
64 22 4
64 23 2
64 24 4
64 25 5
64 26 5
64 27 1
64 28 5
64 29 3
64 30 5
64 31 1
64 32 5
64 33 4
64 34 2
64 35 4
64 36 4
64 37 2
64 38 2
64 39 1
64 40 5
64 41 3
64 42 5
64 43 4
64 44 2
64 45 3
64 46 5
64 47 4
64 48 2
64 49 5
64 50 3
64 51 5
64 52 3
64 53 5
64 54 4
64 55 5
64 56 4
64 57 1
64 58 4
64 59 2
64 60 3
64 61 1
64 62 2
64 63 2
65 0 5
65 1 2
65 2 3
65 3 2
65 4 2
65 5 4
65 6 5
65 7 5
65 8 1
65 9 1
65 10 4
65 11 4
65 12 3
65 13 3
65 14 2
65 15 4
65 16 1
65 17 4
65 18 1
65 19 5
65 20 2
65 21 3
65 22 5
65 23 2
65 24 3
65 25 2
65 26 4
65 27 3
65 28 4
65 29 4
65 30 5
65 31 3
65 32 4
65 33 4
65 34 5
65 35 5
65 36 1
65 37 5
65 38 4
65 39 4
65 40 4
65 41 2
65 42 4
65 43 2
65 44 3
65 45 3
65 46 1
65 47 5
65 48 5
65 49 1
65 50 3
65 51 3
65 52 4
65 53 3
65 54 5
65 55 4
65 56 5
65 57 2
65 58 5
65 59 1
65 60 1
65 61 4
65 62 1
65 63 4
65 64 4
66 0 3
66 1 4
66 2 2
66 3 3
66 4 4
66 5 3
66 6 3
66 7 4
66 8 4
66 9 2
66 10 5
66 11 3
66 12 5
66 13 1
66 14 3
66 15 2
66 16 1
66 17 2
66 18 2
66 19 1
66 20 3
66 21 4
66 22 4
66 23 2
66 24 1
66 25 4
66 26 4
66 27 5
66 28 1
66 29 4
66 30 2
66 31 1
66 32 3
66 33 4
66 34 5
66 35 5
66 36 1
66 37 5
66 38 1
66 39 4
66 40 1
66 41 3
66 42 4
66 43 4
66 44 1
66 45 4
66 46 4
66 47 5
66 48 3
66 49 2
66 50 5
66 51 4
66 52 2
66 53 1
66 54 2
66 55 3
66 56 1
66 57 3
66 58 1
66 59 5
66 60 3
66 61 2
66 62 1
66 63 5
66 64 5
66 65 1
67 0 3
67 1 1
67 2 4
67 3 2
67 4 2
67 5 5
67 6 3
67 7 3
67 8 4
67 9 2
67 10 3
67 11 5
67 12 4
67 13 1
67 14 5
67 15 2
67 16 5
67 17 4
67 18 1
67 19 1
67 20 1
67 21 5
67 22 2
67 23 1
67 24 5
67 25 2
67 26 5
67 27 1
67 28 2
67 29 1
67 30 4
67 31 1
67 32 2
67 33 5
67 34 3
67 35 2
67 36 2
67 37 5
67 38 1
67 39 3
67 40 4
67 41 5
67 42 3
67 43 2
67 44 3
67 45 5
67 46 5
67 47 3
67 48 3
67 49 2
67 50 3
67 51 1
67 52 1
67 53 1
67 54 2
67 55 3
67 56 5
67 57 5
67 58 5
67 59 4
67 60 4
67 61 1
67 62 3
67 63 5
67 64 3
67 65 5
67 66 4
68 0 1
68 1 2
68 2 2
68 3 4
68 4 4
68 5 1
68 6 2
68 7 1
68 8 5
68 9 1
68 10 2
68 11 2
68 12 3
68 13 4
68 14 1
68 15 4
68 16 3
68 17 1
68 18 4
68 19 3
68 20 2
68 21 3
68 22 2
68 23 5
68 24 5
68 25 3
68 26 3
68 27 2
68 28 2
68 29 3
68 30 3
68 31 3
68 32 4
68 33 1
68 34 1
68 35 4
68 36 1
68 37 5
68 38 3
68 39 2
68 40 1
68 41 1
68 42 3
68 43 5
68 44 5
68 45 2
68 46 2
68 47 4
68 48 1
68 49 4
68 50 5
68 51 5
68 52 3
68 53 5
68 54 5
68 55 2
68 56 3
68 57 3
68 58 4
68 59 1
68 60 5
68 61 2
68 62 3
68 63 4
68 64 2
68 65 1
68 66 3
68 67 5
69 0 1
69 1 2
69 2 5
69 3 1
69 4 3
69 5 4
69 6 3
69 7 2
69 8 5
69 9 2
69 10 2
69 11 5
69 12 4
69 13 5
69 14 5
69 15 4
69 16 4
69 17 5
69 18 5
69 19 5
69 20 3
69 21 5
69 22 2
69 23 3
69 24 2
69 25 3
69 26 2
69 27 4
69 28 3
69 29 3
69 30 2
69 31 3
69 32 2
69 33 5
69 34 4
69 35 1
69 36 3
69 37 3
69 38 3
69 39 4
69 40 1
69 41 4
69 42 2
69 43 5
69 44 1
69 45 1
69 46 1
69 47 2
69 48 1
69 49 1
69 50 3
69 51 5
69 52 3
69 53 3
69 54 2
69 55 3
69 56 5
69 57 1
69 58 4
69 59 3
69 60 1
69 61 5
69 62 2
69 63 4
69 64 1
69 65 1
69 66 5
69 67 5
69 68 1
